1 -1 0
1 -2 0
1 -3 0
1 -4 0
1 -5 0
1 -6 0
1 -7 0
1 -8 0
1 -9 0
1 -10 0
h 11 12 13 0
h -14 0
h -11 15 0
h -12 15 0
h -11 -12 16 0
h -13 17 0
h -14 17 0
h -13 -14 18 0
h -15 19 0
h -17 19 0
h -15 -17 20 0
h -16 21 0
h -18 21 0
h -16 -18 22 0
h -20 23 0
h -21 23 0
h -20 -21 24 0
h -23 0
h 25 26 27 0
h -28 0
h -25 29 0
h -26 29 0
h -25 -26 30 0
h -27 31 0
h -28 31 0
h -27 -28 32 0
h -29 33 0
h -31 33 0
h -29 -31 34 0
h -30 35 0
h -32 35 0
h -30 -32 36 0
h -34 37 0
h -35 37 0
h -34 -35 38 0
h -37 0
h 39 40 0
h -39 -40 0
h 41 42 43 0
h -44 0
h -41 45 0
h -42 45 0
h -41 -42 46 0
h -43 47 0
h -44 47 0
h -43 -44 48 0
h -45 49 0
h -47 49 0
h -45 -47 50 0
h -46 51 0
h -48 51 0
h -46 -48 52 0
h -50 53 0
h -51 53 0
h -50 -51 54 0
h -53 0
h 55 56 57 0
h -58 0
h -55 59 0
h -56 59 0
h -55 -56 60 0
h -57 61 0
h -58 61 0
h -57 -58 62 0
h -59 63 0
h -61 63 0
h -59 -61 64 0
h -60 65 0
h -62 65 0
h -60 -62 66 0
h -64 67 0
h -65 67 0
h -64 -65 68 0
h -67 0
h 69 0
h -69 70 0
h -10 70 0
h -69 -10 71 0
h -7 72 0
h -6 72 0
h -7 -6 73 0
h -1 72 0
h -7 -1 73 0
h -6 -1 73 0
h -7 -6 -1 74 0
h -70 75 0
h -71 76 0
h -72 75 0
h -73 76 0
h -74 77 0
h -70 -72 76 0
h -70 -73 77 0
h -70 -74 78 0
h -71 -72 77 0
h -71 -73 78 0
h -71 -74 79 0
h 12 80 0
h -76 80 0
h -78 81 0
h 12 -76 81 0
h 12 -78 82 0
h 13 83 0
h -81 83 0
h 13 -81 84 0
h -84 0
h 85 0
h -85 86 0
h 10 86 0
h -85 10 87 0
h 7 88 0
h 6 88 0
h 7 6 89 0
h 1 88 0
h 7 1 89 0
h 6 1 89 0
h 7 6 1 90 0
h -86 91 0
h -87 92 0
h -88 91 0
h -89 92 0
h -90 93 0
h -86 -88 92 0
h -86 -89 93 0
h -86 -90 94 0
h -87 -88 93 0
h -87 -89 94 0
h -87 -90 95 0
h -85 96 0
h -12 96 0
h -85 -12 97 0
h -96 98 0
h -97 99 0
h -92 98 0
h -94 99 0
h -96 -92 99 0
h -96 -94 100 0
h -97 -92 100 0
h -97 -94 101 0
h -101 0
h -13 102 0
h -99 102 0
h -101 103 0
h -13 -99 103 0
h -103 0
h 104 0
h -104 105 0
h -9 105 0
h -104 -9 106 0
h -8 105 0
h -104 -8 106 0
h -9 -8 106 0
h -104 -9 -8 107 0
h -7 108 0
h -6 108 0
h -7 -6 109 0
h -2 108 0
h -7 -2 109 0
h -6 -2 109 0
h -7 -6 -2 110 0
h -105 111 0
h -106 112 0
h -107 113 0
h -108 111 0
h -109 112 0
h -110 113 0
h -105 -108 112 0
h -105 -109 113 0
h -105 -110 114 0
h -106 -108 113 0
h -106 -109 114 0
h -106 -110 115 0
h -107 -108 114 0
h -107 -109 115 0
h -107 -110 116 0
h 26 117 0
h -112 117 0
h -114 118 0
h -116 119 0
h 26 -112 118 0
h 26 -114 119 0
h 26 -116 120 0
h -120 0
h 27 121 0
h -118 121 0
h -120 122 0
h 27 -118 122 0
h -122 0
h 123 0
h 9 124 0
h 8 124 0
h 9 8 125 0
h 7 126 0
h 6 126 0
h 7 6 127 0
h 2 126 0
h 7 2 127 0
h 6 2 127 0
h 7 6 2 128 0
h -124 129 0
h -125 130 0
h -126 129 0
h -127 130 0
h -128 131 0
h -124 -126 130 0
h -124 -127 131 0
h -124 -128 132 0
h -125 -126 131 0
h -125 -127 132 0
h -125 -128 133 0
h -123 134 0
h -26 134 0
h -123 -26 135 0
h -134 136 0
h -135 137 0
h -130 136 0
h -132 137 0
h -134 -130 137 0
h -134 -132 138 0
h -135 -130 138 0
h -135 -132 139 0
h -139 0
h -27 140 0
h -137 140 0
h -139 141 0
h -27 -137 141 0
h -141 0
h 142 0
h 10 143 0
h 7 143 0
h 10 7 144 0
h 3 143 0
h 10 3 144 0
h 7 3 144 0
h 10 7 3 145 0
h -40 146 0
h -144 146 0
h -40 -144 147 0
h -147 0
h 148 0
h -10 149 0
h -7 149 0
h -10 -7 150 0
h -3 149 0
h -10 -3 150 0
h -7 -3 150 0
h -10 -7 -3 151 0
h -148 152 0
h -149 152 0
h -150 153 0
h -151 154 0
h -148 -149 153 0
h -148 -150 154 0
h -148 -151 155 0
h -155 0
h 40 156 0
h -153 156 0
h -155 157 0
h 40 -153 157 0
h -157 0
h 158 0
h -158 159 0
h -10 159 0
h -158 -10 160 0
h -7 161 0
h -6 161 0
h -7 -6 162 0
h -4 161 0
h -7 -4 162 0
h -6 -4 162 0
h -7 -6 -4 163 0
h -159 164 0
h -160 165 0
h -161 164 0
h -162 165 0
h -163 166 0
h -159 -161 165 0
h -159 -162 166 0
h -159 -163 167 0
h -160 -161 166 0
h -160 -162 167 0
h -160 -163 168 0
h 42 169 0
h -165 169 0
h -167 170 0
h 42 -165 170 0
h 42 -167 171 0
h 43 172 0
h -170 172 0
h 43 -170 173 0
h -173 0
h 174 0
h -174 175 0
h 10 175 0
h -174 10 176 0
h 7 177 0
h 6 177 0
h 7 6 178 0
h 4 177 0
h 7 4 178 0
h 6 4 178 0
h 7 6 4 179 0
h -175 180 0
h -176 181 0
h -177 180 0
h -178 181 0
h -179 182 0
h -175 -177 181 0
h -175 -178 182 0
h -175 -179 183 0
h -176 -177 182 0
h -176 -178 183 0
h -176 -179 184 0
h -174 185 0
h -42 185 0
h -174 -42 186 0
h -185 187 0
h -186 188 0
h -181 187 0
h -183 188 0
h -185 -181 188 0
h -185 -183 189 0
h -186 -181 189 0
h -186 -183 190 0
h -190 0
h -43 191 0
h -188 191 0
h -190 192 0
h -43 -188 192 0
h -192 0
h 193 0
h -193 194 0
h -10 194 0
h -193 -10 195 0
h -9 194 0
h -193 -9 195 0
h -10 -9 195 0
h -193 -10 -9 196 0
h -8 197 0
h -6 197 0
h -8 -6 198 0
h -5 197 0
h -8 -5 198 0
h -6 -5 198 0
h -8 -6 -5 199 0
h -194 200 0
h -195 201 0
h -196 202 0
h -197 200 0
h -198 201 0
h -199 202 0
h -194 -197 201 0
h -194 -198 202 0
h -194 -199 203 0
h -195 -197 202 0
h -195 -198 203 0
h -195 -199 204 0
h -196 -197 203 0
h -196 -198 204 0
h -196 -199 205 0
h 56 206 0
h -201 206 0
h -203 207 0
h -205 208 0
h 56 -201 207 0
h 56 -203 208 0
h 56 -205 209 0
h -209 0
h 57 210 0
h -207 210 0
h -209 211 0
h 57 -207 211 0
h -211 0
h 212 0
h 10 213 0
h 9 213 0
h 10 9 214 0
h 8 215 0
h 6 215 0
h 8 6 216 0
h 5 215 0
h 8 5 216 0
h 6 5 216 0
h 8 6 5 217 0
h -213 218 0
h -214 219 0
h -215 218 0
h -216 219 0
h -217 220 0
h -213 -215 219 0
h -213 -216 220 0
h -213 -217 221 0
h -214 -215 220 0
h -214 -216 221 0
h -214 -217 222 0
h -212 223 0
h -56 223 0
h -212 -56 224 0
h -223 225 0
h -224 226 0
h -219 225 0
h -221 226 0
h -223 -219 226 0
h -223 -221 227 0
h -224 -219 227 0
h -224 -221 228 0
h -228 0
h -57 229 0
h -226 229 0
h -228 230 0
h -57 -226 230 0
h -230 0
h 1 2 3 4 5 6 7 8 9 10 0
